units      real
atom_style     full

pair_style     lj/charmm/coul/long 8.0 10.0 10.0
bond_style      harmonic
angle_style     charmm 
dihedral_style  charmm 
improper_style  harmonic
kspace_style    pppm 0.0001

__INPUT__

neighbor 2.0 bin
neigh_modify  delay 5

#timestep  1.0 # 1.0 fs
variable e equal etotal

group PHI id 5 7 9 15
group PSI id 7 9 15 17

compute 1 PHI dihedral/local phi
compute 2 PSI dihedral/local phi
compute 3 all reduce ave c_1
compute 4 all reduce ave c_2

thermo_style  custom step temp pe ke etotal c_3 c_4
thermo_modify norm no

