# this file sets up an alanine dipeptide simulation using LAMMPS command syntax
# forceField parameters
units      real
atom_style     full
log /scratch/projects/hockygroup/kl3574/quench_paper_data/ref_WTmetaD/bf6/WTmetaD.log

# define specific interation styles
pair_style     lj/charmm/coul/long 8.0 10.0 10.0
bond_style      harmonic
angle_style     charmm 
dihedral_style  charmm 
improper_style  harmonic
kspace_style    pppm 0.0001

# read in the molecular data for the specified file
read_data diala_start.data

# simulationParameters 
neighbor 2.0 bin
neigh_modify  delay 5

# timestep information
timestep  1.0
variable e equal etotal

group PHI id 5 7 9 15
group PSI id 7 9 15 17

compute 1 PHI dihedral/local phi
compute 2 PSI dihedral/local phi
compute 3 all reduce ave c_1
compute 4 all reduce ave c_2

thermo_style  custom step temp pe ke etotal c_3 c_4
thermo_modify norm no
thermo 1000

fix 1 all langevin 300.0 300.0 100.0 58728
fix 2 all nve
fix 3 all plumed plumedfile metadynamics_bf6.plumed.dat
run 800000000

