units           lj
atom_style      atomic
