#log             test.log

units           real
boundary        p p p

#newton          off
pair_style      lj/charmmfsw/coul/long 10 12
pair_modify     mix arithmetic
kspace_style    pppm 1e-6

atom_style      full
bond_style      harmonic
angle_style     charmm
dihedral_style  charmmfsw
special_bonds   charmm
improper_style  harmonic

__INPUT__
#read_data       ala_solv.data

neighbor        2 bin
neigh_modify    delay 5

group           PHI id 5 7 9 15
group           PSI id 7 9 15 17
group           ALA id 1:22
group           SOL id 23:2278

compute         1 PHI dihedral/local phi 
compute         2 PSI dihedral/local phi 
compute         3 all reduce ave c_1 
compute         4 all reduce ave c_2
#compute         ALA_temp ALA temp

thermo_style    custom step temp pe ke etotal c_3 c_4
thermo_modify   norm no

#timestep        1
#thermo          100
#reset_timestep  0
#
#fix             1 ALA quench_exponential 0.001
#fix             2 SOL nve
#
#restart         100000 test.restart
#run             100000

